1 1 -2 0
1 -1 -3 0
1 -1 4 0
1 2 -5 0
1 -2 -6 0
1 -2 -3 0
1 -2 -7 0
1 -2 -4 0
1 8 9 0
1 8 -10 0
1 -8 6 0
1 8 11 0
1 -10 12 0
1 10 6 0
1 10 -3 0
1 10 13 0
1 10 11 0
1 -3 -14 0
1 3 15 0
1 -3 -2 0
1 -3 -16 0
1 -3 8 0
1 -4 17 0
1 4 18 0
1 -4 -15 0
1 -4 -10 0
1 -4 -3 0
1 4 -16 0
1 4 -19 0
1 -4 8 0
1 -4 1 0
1 6 -14 0
1 -6 20 0
1 -6 21 0
1 -6 22 0
1 -6 -23 0
1 -6 -24 0
1 -6 1 0
1 -6 7 0
1 -7 -14 0
1 7 -20 0
1 -7 -21 0
1 -7 -10 0
1 -7 -2 0
1 7 -6 0
1 7 23 0
1 -7 -24 0
1 -7 -8 0
1 7 -1 0
1 7 -25 0
1 -19 -15 0
1 19 -24 0
1 15 9 0
1 15 -13 0
1 15 11 0
1 15 -19 0
1 -16 9 0
1 -16 26 0
1 -16 -27 0
1 16 3 0
1 16 -13 0
1 16 28 0
1 -16 4 0
1 18 -9 0
1 18 26 0
1 18 20 0
1 18 -27 0
1 18 -3 0
1 -18 -11 0
1 18 -16 0
1 -18 4 0
1 -11 -29 0
1 -11 26 0
1 11 -15 0
1 11 30 0
1 -11 31 0
1 -11 -32 0
1 11 16 0
1 -11 19 0
1 -11 -8 0
1 11 -33 0
1 -26 -34 0
1 -26 -35 0
1 -26 -18 0
1 26 15 0
1 -26 10 0
1 26 -30 0
1 26 31 0
1 -26 8 0
1 13 36 0
1 -13 -14 0
1 -13 -15 0
1 13 -10 0
1 13 37 0
1 13 23 0
1 -13 -16 0
1 13 19 0
1 9 -18 0
1 -9 -30 0
1 -9 13 0
1 9 37 0
1 9 23 0
1 9 -16 0
1 -9 -8 0
1 -38 -29 0
1 38 39 0
1 38 -23 0
1 38 40 0
1 -29 -26 0
1 -29 27 0
1 29 38 0
1 29 -11 0
1 -29 -40 0
1 31 -34 0
1 31 26 0
1 -31 27 0
1 -31 37 0
1 31 -11 0
1 31 -41 0
1 34 -36 0
1 34 26 0
1 -34 -27 0
1 -34 -11 0
1 -34 40 0
1 -40 34 0
1 40 -18 0
1 -40 27 0
1 -40 -31 0
1 40 -38 0
1 27 34 0
1 -27 42 0
1 -27 -31 0
1 27 38 0
1 27 -40 0
1 -41 -42 0
1 41 -43 0
1 -41 -30 0
1 -41 -38 0
1 -41 44 0
1 -39 45 0
1 -39 -42 0
1 39 -43 0
1 39 -31 0
1 -39 -16 0
1 39 41 0
1 -39 -44 0
1 39 -33 0
1 -46 47 0
1 46 5 0
1 -5 47 0
1 -5 -2 0
1 -5 48 0
1 5 -49 0
1 5 46 0
1 50 -51 0
1 -50 52 0
1 50 -49 0
1 50 53 0
1 50 54 0
1 12 47 0
1 12 -55 0
1 12 10 0
1 12 56 0
1 -12 -49 0
1 12 -53 0
1 -12 -57 0
1 47 -58 0
1 -47 12 0
1 -47 -5 0
1 -47 53 0
1 47 -59 0
1 -47 -28 0
1 -47 -46 0
1 53 47 0
1 53 -20 0
1 53 12 0
1 53 60 0
1 -53 -59 0
1 -53 -28 0
1 -53 -50 0
1 -51 -61 0
1 -51 62 0
1 51 63 0
1 51 -64 0
1 51 -49 0
1 -51 -65 0
1 -51 50 0
1 49 62 0
1 -49 63 0
1 -49 66 0
1 -49 59 0
1 -49 -46 0
1 -24 -55 0
1 -24 -6 0
1 24 53 0
1 24 67 0
1 -24 -19 0
1 21 -47 0
1 -21 -55 0
1 -21 64 0
1 -21 -57 0
1 21 -24 0
1 -28 68 0
1 28 -6 0
1 28 57 0
1 -28 67 0
1 -28 -69 0
1 -28 -70 0
1 -20 47 0
1 -20 18 0
1 -20 -55 0
1 -20 63 0
1 20 -52 0
1 20 -68 0
1 -20 -57 0
1 20 -28 0
1 -52 71 0
1 -52 67 0
1 52 12 0
1 -52 -72 0
1 52 -37 0
1 -52 23 0
1 52 24 0
1 -67 71 0
1 67 -36 0
1 67 14 0
1 67 20 0
1 -67 52 0
1 -67 -37 0
1 -67 -23 0
1 67 -28 0
1 -67 -24 0
1 67 50 0
1 -55 71 0
1 55 62 0
1 55 -20 0
1 55 12 0
1 55 72 0
1 -55 73 0
1 -55 -57 0
1 -55 -24 0
1 55 50 0
1 -57 71 0
1 -57 20 0
1 -57 55 0
1 -57 -21 0
1 -57 -74 0
1 23 -68 0
1 -23 3 0
1 -23 13 0
1 -23 38 0
1 -23 59 0
1 23 67 0
1 14 -29 0
1 14 -52 0
1 -14 6 0
1 -14 70 0
1 -14 7 0
1 -37 17 0
1 37 9 0
1 -37 68 0
1 -37 -73 0
1 37 70 0
1 36 -34 0
1 -36 75 0
1 36 -52 0
1 36 -22 0
1 -36 -76 0
1 36 -13 0
1 36 67 0
1 36 -69 0
1 -77 -14 0
1 77 -20 0
1 77 -78 0
1 77 28 0
1 -77 33 0
1 70 36 0
1 70 14 0
1 -70 20 0
1 -70 77 0
1 70 -43 0
1 70 -30 0
1 70 -37 0
1 -70 -23 0
1 70 -28 0
1 -70 79 0
1 70 -33 0
1 -68 71 0
1 68 14 0
1 -68 -78 0
1 -68 80 0
1 -68 -69 0
1 -69 71 0
1 -69 80 0
1 69 23 0
1 -69 -81 0
1 -30 9 0
1 -30 26 0
1 30 77 0
1 -30 22 0
1 30 72 0
1 -30 -41 0
1 33 -9 0
1 -33 17 0
1 -33 39 0
1 -33 22 0
1 33 76 0
1 -33 41 0
1 -43 -82 0
1 43 35 0
1 -43 -22 0
1 43 -32 0
1 -43 -25 0
1 -83 17 0
1 -83 82 0
1 -83 -35 0
1 -83 39 0
1 -83 77 0
1 -83 22 0
1 83 76 0
1 83 -84 0
1 83 41 0
1 83 70 0
1 76 17 0
1 -76 -85 0
1 76 -42 0
1 -76 30 0
1 -76 3 0
1 76 86 0
1 -76 -87 0
1 76 -44 0
1 76 83 0
1 -17 -88 0
1 17 -85 0
1 -17 37 0
1 -17 87 0
1 17 44 0
1 -17 -83 0
1 22 -36 0
1 22 85 0
1 22 -78 0
1 -22 -43 0
1 -22 89 0
1 -22 -37 0
1 22 90 0
1 -22 -79 0
1 -22 -25 0
1 -22 33 0
1 -25 -36 0
1 -25 -43 0
1 25 -22 0
1 -25 -30 0
1 -25 79 0
1 25 -91 0
1 25 -33 0
1 42 -84 0
1 -42 -44 0
1 -44 82 0
1 44 -42 0
1 44 -76 0
1 -44 -84 0
1 44 41 0
1 -92 17 0
1 -92 -82 0
1 -92 45 0
1 -92 -87 0
1 92 -93 0
1 92 32 0
1 -92 -94 0
1 87 35 0
1 87 -84 0
1 87 95 0
1 87 -94 0
1 -32 -96 0
1 32 97 0
1 -32 -42 0
1 32 -43 0
1 32 98 0
1 32 -87 0
1 32 44 0
1 32 83 0
1 35 26 0
1 35 99 0
1 35 -42 0
1 35 -100 0
1 -35 98 0
1 35 -32 0
1 -35 -44 0
1 -84 96 0
1 -84 101 0
1 -84 92 0
1 84 43 0
1 -84 100 0
1 84 -102 0
1 84 44 0
1 -84 83 0
1 82 9 0
1 82 103 0
1 82 -85 0
1 -82 92 0
1 82 100 0
1 -82 -104 0
1 -82 87 0
1 -82 44 0
1 82 83 0
1 105 35 0
1 105 45 0
1 -105 -95 0
1 -105 106 0
1 -105 94 0
1 -106 -105 0
1 106 -93 0
1 106 95 0
1 106 90 0
1 -97 -35 0
1 97 -94 0
1 98 -104 0
1 -98 95 0
1 94 -107 0
1 94 92 0
1 94 -106 0
1 94 40 0
1 -94 -108 0
1 -93 -97 0
1 -93 27 0
1 -93 109 0
1 93 98 0
1 93 -106 0
1 -93 87 0
1 -93 94 0
1 -95 97 0
1 -95 -45 0
1 -95 105 0
1 95 -110 0
1 95 98 0
1 -95 -111 0
1 45 107 0
1 45 96 0
1 -45 -92 0
1 45 110 0
1 -45 95 0
1 112 113 0
1 -112 114 0
1 -112 -48 0
1 -112 46 0
1 48 -114 0
1 48 5 0
1 -48 -115 0
1 54 -113 0
1 -54 -56 0
1 -54 -116 0
1 -54 -115 0
1 -54 -117 0
1 54 -50 0
1 -54 -118 0
1 -56 119 0
1 56 -115 0
1 -56 -120 0
1 -117 -114 0
1 -117 -56 0
1 117 121 0
1 -117 54 0
1 114 -117 0
1 114 122 0
1 -114 -123 0
1 114 65 0
1 114 -54 0
1 115 -56 0
1 -115 -54 0
1 115 -112 0
1 -113 124 0
1 -113 56 0
1 113 -54 0
1 65 64 0
1 -65 -117 0
1 -65 24 0
1 -65 -120 0
1 65 118 0
1 -64 114 0
1 -64 117 0
1 -64 118 0
1 123 63 0
1 -123 -119 0
1 -123 125 0
1 123 -49 0
1 123 28 0
1 123 118 0
1 -123 -126 0
1 63 -20 0
1 -63 -114 0
1 -63 -119 0
1 63 -49 0
1 63 123 0
1 -63 -120 0
1 63 126 0
1 -118 64 0
1 118 59 0
1 118 -123 0
1 118 127 0
1 -116 128 0
1 -116 63 0
1 116 -56 0
1 116 -129 0
1 116 -130 0
1 116 -73 0
1 -116 123 0
1 -116 65 0
1 -120 128 0
1 120 -63 0
1 120 -56 0
1 -120 -130 0
1 120 -131 0
1 119 63 0
1 119 -64 0
1 119 132 0
1 119 -56 0
1 119 -123 0
1 -119 65 0
1 59 -133 0
1 59 47 0
1 -59 -125 0
1 -59 53 0
1 -59 57 0
1 -59 118 0
1 -62 133 0
1 -62 14 0
1 62 -55 0
1 -62 -125 0
1 62 -53 0
1 -62 118 0
1 73 133 0
1 -73 -75 0
1 -73 -61 0
1 73 58 0
1 -73 -55 0
1 73 134 0
1 -73 -66 0
1 73 57 0
1 75 133 0
1 -75 36 0
1 75 -58 0
1 75 134 0
1 -75 60 0
1 -75 126 0
1 133 -135 0
1 -133 -62 0
1 -133 63 0
1 133 136 0
1 -133 80 0
1 133 -72 0
1 133 -59 0
1 133 -123 0
1 -133 137 0
1 134 133 0
1 -134 -75 0
1 -134 62 0
1 126 128 0
1 -126 75 0
1 126 -138 0
1 -126 -136 0
1 -126 -139 0
1 -125 128 0
1 125 62 0
1 -125 -63 0
1 -125 -136 0
1 125 -140 0
1 125 139 0
1 125 -123 0
1 125 -141 0
1 72 71 0
1 72 134 0
1 72 -30 0
1 72 -130 0
1 -72 -66 0
1 72 60 0
1 -72 -57 0
1 -71 133 0
1 -71 -61 0
1 -71 55 0
1 -71 134 0
1 -71 -72 0
1 71 33 0
1 80 -142 0
1 -80 143 0
1 80 68 0
1 -80 -134 0
1 -80 -139 0
1 80 -66 0
1 -80 -144 0
1 80 -137 0
1 137 133 0
1 137 61 0
1 -137 -142 0
1 137 143 0
1 -137 -80 0
1 -137 134 0
1 137 -144 0
1 -137 -69 0
1 137 -83 0
1 137 -145 0
1 -58 71 0
1 -58 47 0
1 -58 146 0
1 58 147 0
1 -58 -80 0
1 58 -72 0
1 58 73 0
1 -58 -60 0
1 -58 -148 0
1 58 79 0
1 -58 137 0
1 -60 -75 0
1 60 -58 0
1 60 -147 0
1 -60 -53 0
1 -60 -73 0
1 60 -149 0
1 -60 -137 0
1 61 -71 0
1 -61 51 0
1 61 -150 0
1 61 80 0
1 -61 -151 0
1 61 152 0
1 -61 141 0
1 -66 -71 0
1 -66 153 0
1 66 136 0
1 66 -80 0
1 66 49 0
1 66 -154 0
1 -66 -151 0
1 66 -152 0
1 -78 -143 0
1 -78 42 0
1 -78 -77 0
1 78 -74 0
1 79 58 0
1 79 -142 0
1 -79 -68 0
1 -79 70 0
1 -79 78 0
1 -79 -60 0
1 79 -74 0
1 -79 -144 0
1 79 69 0
1 -79 -44 0
1 79 -25 0
1 147 -142 0
1 147 -92 0
1 147 155 0
1 -147 22 0
1 147 -60 0
1 147 -148 0
1 148 -155 0
1 148 -87 0
1 -148 152 0
1 148 156 0
1 -143 144 0
1 143 157 0
1 -143 -85 0
1 -143 -147 0
1 -143 -80 0
1 143 158 0
1 143 104 0
1 144 -147 0
1 -144 -78 0
1 -144 -80 0
1 144 -90 0
1 -144 -148 0
1 144 -79 0
1 -144 -137 0
1 142 -157 0
1 -142 55 0
1 -142 159 0
1 -142 150 0
1 142 -147 0
1 -142 -78 0
1 -142 80 0
1 -142 -158 0
1 -142 74 0
1 142 -151 0
1 142 148 0
1 142 -79 0
1 -74 142 0
1 -74 160 0
1 74 -147 0
1 -74 -57 0
1 -74 151 0
1 74 -148 0
1 -74 -79 0
1 74 137 0
1 85 17 0
1 -85 105 0
1 85 -155 0
1 85 -161 0
1 -85 22 0
1 -85 84 0
1 -90 -76 0
1 90 84 0
1 -101 -88 0
1 -101 97 0
1 -101 -143 0
1 -101 161 0
1 -101 89 0
1 -101 -84 0
1 -101 104 0
1 101 144 0
1 -104 -82 0
1 104 -101 0
1 -104 161 0
1 104 89 0
1 -104 86 0
1 -104 84 0
1 -104 98 0
1 -104 -162 0
1 104 81 0
1 161 163 0
1 -161 -164 0
1 -161 96 0
1 -161 -101 0
1 -161 147 0
1 -161 -77 0
1 -161 165 0
1 161 110 0
1 161 -100 0
1 161 156 0
1 -156 -163 0
1 -156 164 0
1 -156 96 0
1 156 -85 0
1 156 161 0
1 -156 -166 0
1 156 -110 0
1 156 100 0
1 156 90 0
1 156 -148 0
1 155 -167 0
1 -155 101 0
1 155 -85 0
1 -155 166 0
1 -155 -158 0
1 155 -90 0
1 -155 -148 0
1 -81 166 0
1 -81 168 0
1 -81 158 0
1 96 88 0
1 96 -82 0
1 -96 -95 0
1 -96 91 0
1 -100 82 0
1 100 96 0
1 -100 -35 0
1 100 -86 0
1 -100 -158 0
1 164 -167 0
1 164 -110 0
1 164 -86 0
1 -164 102 0
1 164 -156 0
1 -164 91 0
1 -110 88 0
1 -110 -99 0
1 -110 45 0
1 110 -161 0
1 110 -86 0
1 -110 -91 0
1 -86 107 0
1 86 88 0
1 -86 169 0
1 -86 -170 0
1 -86 171 0
1 88 -107 0
1 88 17 0
1 -88 -164 0
1 -88 96 0
1 88 169 0
1 88 -86 0
1 89 101 0
1 -89 -169 0
1 89 22 0
1 89 166 0
1 89 110 0
1 89 104 0
1 89 -91 0
1 -89 -172 0
1 -91 -163 0
1 91 -169 0
1 91 173 0
1 -91 -166 0
1 -91 -100 0
1 -91 -104 0
1 91 -171 0
1 107 163 0
1 -107 103 0
1 107 -99 0
1 -107 45 0
1 107 102 0
1 107 -95 0
1 -174 -107 0
1 174 -88 0
1 -174 103 0
1 -174 99 0
1 -174 -45 0
1 -174 93 0
1 174 -86 0
1 174 102 0
1 -174 -175 0
1 -176 -109 0
1 176 -86 0
1 176 -175 0
1 176 111 0
1 -176 -172 0
1 -170 -109 0
1 -170 111 0
1 170 -108 0
1 170 176 0
1 -175 -164 0
1 175 170 0
1 -175 110 0
1 -175 -32 0
1 -175 -176 0
1 -99 107 0
1 -99 164 0
1 -99 35 0
1 99 -177 0
1 -99 110 0
1 99 -175 0
1 99 -178 0
1 -102 -179 0
1 102 -84 0
1 -102 180 0
1 102 -171 0
1 -103 -164 0
1 -103 -82 0
1 103 170 0
1 103 110 0
1 -103 -171 0
1 181 175 0
1 -181 171 0
1 -182 183 0
1 182 169 0
1 182 -175 0
1 -182 111 0
1 182 108 0
1 -182 181 0
1 -178 99 0
1 -178 -111 0
1 178 180 0
1 177 183 0
1 177 -175 0
1 -108 177 0
1 -108 109 0
1 108 170 0
1 108 178 0
1 109 -108 0
1 109 170 0
1 109 -181 0
1 -109 -176 0
1 111 -183 0
1 111 181 0
1 -111 176 0
1 183 -45 0
1 -183 -177 0
1 183 -170 0
1 -183 181 0
1 130 -128 0
1 -130 -119 0
1 -130 116 0
1 130 72 0
1 -130 121 0
1 -130 -126 0
1 128 71 0
1 128 -122 0
1 -128 125 0
1 -128 -130 0
1 128 -121 0
1 128 -118 0
1 -128 -126 0
1 139 125 0
1 139 80 0
1 139 -184 0
1 -145 -124 0
1 145 -129 0
1 -145 -125 0
1 145 -139 0
1 -121 -152 0
1 121 -141 0
1 121 -145 0
1 122 -114 0
1 122 185 0
1 122 -139 0
1 -122 130 0
1 122 121 0
1 122 -152 0
1 122 -141 0
1 184 130 0
1 184 186 0
1 -184 -145 0
1 124 -130 0
1 124 -184 0
1 -136 -133 0
1 136 61 0
1 -136 -122 0
1 136 -132 0
1 136 -129 0
1 -136 125 0
1 -136 134 0
1 136 66 0
1 -136 131 0
1 136 126 0
1 141 -61 0
1 141 -132 0
1 -141 134 0
1 -141 79 0
1 -153 -135 0
1 153 129 0
1 -153 -187 0
1 -153 66 0
1 153 121 0
1 153 127 0
1 -153 -138 0
1 152 -135 0
1 152 61 0
1 -152 -122 0
1 -152 -132 0
1 -152 129 0
1 152 -140 0
1 -152 187 0
1 152 -66 0
1 152 -148 0
1 -152 131 0
1 152 -138 0
1 127 160 0
1 -127 -188 0
1 127 -162 0
1 127 141 0
1 127 189 0
1 -127 -145 0
1 -129 190 0
1 129 191 0
1 129 -139 0
1 -129 188 0
1 129 -151 0
1 129 145 0
1 -131 132 0
1 -131 139 0
1 131 188 0
1 -131 152 0
1 -131 192 0
1 -131 141 0
1 -132 -190 0
1 -132 119 0
1 -132 193 0
1 132 139 0
1 -132 131 0
1 -132 188 0
1 132 141 0
1 150 -142 0
1 150 -60 0
1 150 -127 0
1 150 -138 0
1 151 135 0
1 -151 61 0
1 -151 -142 0
1 151 150 0
1 -151 -129 0
1 -151 -187 0
1 151 -66 0
1 151 -127 0
1 160 -135 0
1 160 194 0
1 160 129 0
1 160 140 0
1 -160 187 0
1 -160 154 0
1 -160 -149 0
1 160 -74 0
1 160 -162 0
1 -160 -127 0
1 162 194 0
1 -162 -142 0
1 162 -160 0
1 -162 -129 0
1 -162 140 0
1 -162 149 0
1 162 -104 0
1 162 127 0
1 162 138 0
1 -135 167 0
1 135 -160 0
1 -135 150 0
1 -135 153 0
1 -135 -195 0
1 -135 -168 0
1 135 158 0
1 -135 -162 0
1 -135 152 0
1 -187 -167 0
1 187 -153 0
1 187 134 0
1 -187 195 0
1 -187 -158 0
1 187 -151 0
1 187 -152 0
1 138 196 0
1 138 -150 0
1 -138 153 0
1 138 -140 0
1 -138 151 0
1 138 152 0
1 -140 -190 0
1 -140 160 0
1 140 150 0
1 140 -153 0
1 140 -195 0
1 -140 162 0
1 140 -138 0
1 -157 -96 0
1 157 -194 0
1 -157 190 0
1 157 -142 0
1 157 -146 0
1 -157 -143 0
1 -157 -155 0
1 157 154 0
1 157 149 0
1 -157 -144 0
1 -158 135 0
1 158 -157 0
1 158 -146 0
1 158 -155 0
1 -158 -187 0
1 -158 -100 0
1 -158 74 0
1 158 -149 0
1 167 -135 0
1 -167 159 0
1 -167 197 0
1 -167 -187 0
1 -167 198 0
1 -167 81 0
1 -168 194 0
1 -168 -146 0
1 168 159 0
1 168 -110 0
1 168 -154 0
1 168 -81 0
1 -146 -168 0
1 146 162 0
1 -149 -167 0
1 -149 -160 0
1 149 199 0
1 -149 -173 0
1 149 158 0
1 -149 162 0
1 149 172 0
1 -194 167 0
1 194 -157 0
1 194 195 0
1 194 154 0
1 154 -200 0
1 -154 160 0
1 -154 -195 0
1 154 -66 0
1 -154 -158 0
1 163 146 0
1 -163 -159 0
1 163 197 0
1 -163 161 0
1 163 89 0
1 -163 -149 0
1 -163 -156 0
1 -163 -91 0
1 166 163 0
1 -166 161 0
1 -166 -174 0
1 166 -195 0
1 166 149 0
1 166 81 0
1 -166 91 0
1 172 200 0
1 -172 197 0
1 172 -201 0
1 172 165 0
1 172 149 0
1 172 202 0
1 -172 -91 0
1 -173 -146 0
1 173 -201 0
1 -173 -170 0
1 173 165 0
1 173 -203 0
1 173 -202 0
1 173 -198 0
1 197 -163 0
1 -197 198 0
1 -197 -169 0
1 -197 -173 0
1 -197 166 0
1 -197 -168 0
1 -197 180 0
1 198 -163 0
1 -198 -167 0
1 198 179 0
1 198 173 0
1 -198 -166 0
1 198 168 0
1 198 -180 0
1 198 171 0
1 198 172 0
1 159 -204 0
1 202 -163 0
1 202 205 0
1 202 -199 0
1 202 -173 0
1 -202 -168 0
1 202 74 0
1 202 172 0
1 -171 -169 0
1 171 165 0
1 171 89 0
1 171 86 0
1 171 -181 0
1 -171 91 0
1 169 -103 0
1 169 -182 0
1 -169 199 0
1 169 -165 0
1 169 -198 0
1 169 206 0
1 -180 -103 0
1 180 179 0
1 180 -197 0
1 180 -201 0
1 180 -165 0
1 -180 178 0
1 180 206 0
1 180 -204 0
1 180 207 0
1 179 -103 0
1 -179 -177 0
1 179 -205 0
1 179 206 0
1 -165 -179 0
1 165 161 0
1 -165 -173 0
1 -165 -180 0
1 165 171 0
1 207 -179 0
1 207 -173 0
1 207 -165 0
1 207 156 0
1 -207 -171 0
1 207 172 0
1 201 155 0
1 201 -169 0
1 -201 173 0
1 -201 206 0
1 -201 171 0
1 -206 179 0
1 -206 -169 0
1 -206 201 0
1 -206 173 0
1 -206 -180 0
1 -206 171 0
1 -206 -172 0
1 -190 157 0
1 190 185 0
1 -190 -132 0
1 190 186 0
1 190 -208 0
1 -190 131 0
1 188 190 0
1 188 209 0
1 188 140 0
1 -188 -208 0
1 188 -131 0
1 188 -127 0
1 196 140 0
1 196 210 0
1 -196 192 0
1 -196 -189 0
1 -210 196 0
1 210 193 0
1 210 -140 0
1 210 -186 0
1 -210 -208 0
1 -210 -189 0
1 208 211 0
1 208 190 0
1 -208 185 0
1 -208 203 0
1 -208 195 0
1 208 210 0
1 185 196 0
1 -185 190 0
1 -185 122 0
1 185 -195 0
1 185 210 0
1 185 188 0
1 -185 208 0
1 186 190 0
1 -186 -210 0
1 209 190 0
1 209 186 0
1 -209 124 0
1 -209 210 0
1 209 -188 0
1 211 -163 0
1 -211 193 0
1 -211 -191 0
1 -211 140 0
1 -211 187 0
1 211 154 0
1 211 208 0
1 211 -192 0
1 -211 -138 0
1 195 -135 0
1 195 -194 0
1 195 -193 0
1 195 -189 0
1 200 -212 0
1 200 -193 0
1 -200 191 0
1 -200 -203 0
1 200 -213 0
1 -200 208 0
1 -203 185 0
1 -203 193 0
1 -203 191 0
1 -203 -173 0
1 -203 -213 0
1 203 214 0
1 203 -154 0
1 -203 -208 0
1 203 -192 0
1 203 189 0
1 189 -205 0
1 189 199 0
1 -189 -204 0
1 189 127 0
1 191 211 0
1 191 -196 0
1 191 205 0
1 191 203 0
1 -191 -195 0
1 191 210 0
1 191 204 0
1 -191 -189 0
1 -192 -196 0
1 -192 203 0
1 -192 195 0
1 192 131 0
1 -193 200 0
1 -193 211 0
1 -193 132 0
1 193 -210 0
1 193 -192 0
1 199 194 0
1 199 -146 0
1 -199 -191 0
1 -199 -189 0
1 -204 205 0
1 204 191 0
1 -204 213 0
1 204 -214 0
1 204 -202 0
1 -204 -180 0
1 204 -189 0
1 -205 159 0
1 205 213 0
1 205 202 0
1 -205 189 0
1 -215 200 0
1 -215 204 0
1 214 199 0
1 214 203 0
1 214 -204 0
1 -212 205 0
1 -212 199 0
1 -212 203 0
1 -212 -213 0
1 -213 200 0
1 213 -212 0
1 213 140 0
